68
150
118	1
114	1
113	1
110	2
108	2
107	1
105	2
102	1
101	1
100	1
96	2
95	1
94	1
91	3
90	2
89	2
85	2
83	1
82	1
81	2
80	2
79	1
78	2
76	3
75	1
74	1
73	1
72	5
71	1
70	1
69	1
68	1
67	2
66	1
64	1
63	2
61	1
59	3
58	1
54	1
53	1
52	1
51	1
50	2
49	1
46	2
45	2
43	2
42	2
40	1
37	1
36	1
35	1
34	3
32	2
31	1
29	1
28	1
27	1
26	2
25	1
23	1
21	1
20	1
19	1
18	2
16	1
15	1
